Solver command line: ['C:\\Program Files\\IBM\\ILOG\\CPLEX_Studio2211\\cplex\\bin\\x64_win64\\cplex.exe']


Welcome to IBM(R) ILOG(R) CPLEX(R) Interactive Optimizer 22.1.1.0
  with Simplex, Mixed Integer & Barrier Optimizers
5725-A06 5725-A29 5724-Y48 5724-Y49 5724-Y54 5724-Y55 5655-Y21
Copyright IBM Corp. 1988, 2022.  All Rights Reserved.

Type 'help' for a list of available commands.
Type 'help' followed by a command name for more
information on commands.

CPLEX> Logfile 'cplex.log' closed.
Logfile 'C:\Users\wangy\Documents\GitHub\re_optimization\result_site_specific\tmpq5kgu11g.cplex.log' open.
CPLEX> Problem 'C:\Users\wangy\Documents\GitHub\re_optimization\result_site_specific\tmp_9snl0gi.pyomo.lp' read.
Read time = 0.31 sec. (9.13 ticks)
CPLEX> Problem name         : C:\Users\wangy\Documents\GitHub\re_optimization\result_site_specific\tmp_9snl0gi.pyomo.lp
Objective sense      : Minimize
Variables            :   65769  [Nneg: 35068,  Free: 8792,  Binary: 9,
                                 Other: 21900]
Objective nonzeros   :      17
Linear constraints   :   87665  [Less: 46741,  Greater: 5,  Equal: 40919]
  Nonzeros           :  225074
  RHS nonzeros       :    3552

Variables            : Min LB: 0.000000         Max UB: 1.000000       
Objective nonzeros   : Min   : 1.000000         Max   : 1.000000       
Linear constraints   :
  Nonzeros           : Min   : 0.001810253      Max   : 100000.0       
  RHS nonzeros       : Min   : 0.02700000       Max   : 100000.0       
CPLEX> Version identifier: 22.1.1.0 | 2022-11-27 | 9160aff4d
Tried aggregator 3 times.
MIP Presolve eliminated 53534 rows and 33092 columns.
Aggregator did 10451 substitutions.
Reduced MIP has 23680 rows, 22226 columns, and 70898 nonzeros.
Reduced MIP has 5 binaries, 0 generals, 0 SOSs, and 0 indicators.
Presolve time = 0.19 sec. (226.31 ticks)
Found incumbent of value 279024.083164 after 0.30 sec. (325.28 ticks)
Probing time = 0.00 sec. (1.32 ticks)
Tried aggregator 1 time.
Detecting symmetries...
Reduced MIP has 23680 rows, 22226 columns, and 70898 nonzeros.
Reduced MIP has 5 binaries, 0 generals, 0 SOSs, and 0 indicators.
Presolve time = 0.05 sec. (45.74 ticks)
Probing time = 0.00 sec. (1.21 ticks)
MIP emphasis: balance optimality and feasibility.
MIP search method: dynamic search.
Parallel mode: deterministic, using up to 16 threads.
Root relaxation solution time = 1.14 sec. (807.04 ticks)

        Nodes                                         Cuts/
   Node  Left     Objective  IInf  Best Integer    Best Bound    ItCnt     Gap

*     0+    0                       279024.0832    -8641.6428           103.10%
      0     0     5930.2133     1   279024.0832     5930.2133       62   97.87%
*     0+    0                         7534.8718     5930.2133            21.30%
*     0+    0                         6592.5035     5930.2133            10.05%
      0     0        cutoff           6592.5035                    720    0.00%
Elapsed time = 1.81 sec. (1672.92 ticks, tree = 0.01 MB, solutions = 3)

Root node processing (before b&c):
  Real time             =    1.81 sec. (1676.08 ticks)
Parallel b&c, 16 threads:
  Real time             =    0.00 sec. (0.00 ticks)
  Sync time (average)   =    0.00 sec.
  Wait time (average)   =    0.00 sec.
                          ------------
Total (root+branch&cut) =    1.81 sec. (1676.08 ticks)

Solution pool: 3 solutions saved.

MIP - Integer optimal solution:  Objective =  6.5925034636e+03
Solution time =    1.81 sec.  Iterations = 720  Nodes = 0
Deterministic time = 1676.27 ticks  (925.09 ticks/sec)

CPLEX> Incumbent solution written to file 'C:\Users\wangy\Documents\GitHub\re_optimization\result_site_specific\tmpg6htwvz5.cplex.sol'.
CPLEX> 
